language ESSENCE' 1.0
$ minion Nodes: 1
$ minion TotalTime: 0.000374
$ Savile Row TotalTime: 0.144
letting x_SetExplicitVarSize_tuple2 be [2;int(1..1)]
letting x_SetExplicitVarSize_tuple1 be [true;int(1..1)]
